\ENCODING=ISO-8859-1
\Problem name: 

Minimize
 obj: 0 x_1_1 + 0 x_2_2 + 0 x_3_3 + 0 y_0_0 + 7 y_0_1 + 4.47213595499958 y_0_2
      + 10 y_0_3 + 7 y_1_0 + 0 y_1_1 + 3.60555127546399 y_1_2 + 3 y_1_3
      + 4.47213595499958 y_2_0 + 3.60555127546399 y_2_1 + 0 y_2_2
      + 6.32455532033676 y_2_3 + 10 y_3_0 + 3 y_3_1 + 6.32455532033676 y_3_2
      + 0 y_3_3
Subject To
 c1:  x_0_0 + x_0_1 + x_0_2 + x_0_3  = 4
 c2:  x_0_1 - x_1_0 - x_1_2 - x_1_3 + x_2_1 + x_3_1  = 1
 c3:  x_0_2 + x_1_2 - x_2_0 - x_2_1 - x_2_3 + x_3_2  = 1
 c4:  x_0_3 + x_1_3 + x_2_3 - x_3_0 - x_3_1 - x_3_2  = 1
 c5:  y_1_0 + y_2_0 + y_3_0  = 1
 c6:  y_0_1 + y_2_1 + y_3_1  = 1
 c7:  y_0_2 + y_1_2 + y_3_2  = 1
 c8:  y_0_3 + y_1_3 + y_2_3  = 1
 c9:  y_0_1 + y_0_2 + y_0_3  = 1
 c10: y_1_0 + y_1_2 + y_1_3  = 1
 c11: y_2_0 + y_2_1 + y_2_3  = 1
 c12: y_3_0 + y_3_1 + y_3_2  = 1
 c13: x_0_1 - 4 y_0_1 <= 0
 c14: x_0_2 - 4 y_0_2 <= 0
 c15: x_0_3 - 4 y_0_3 <= 0
 c16: x_1_0 - 4 y_1_0 <= 0
 c17: x_1_2 - 4 y_1_2 <= 0
 c18: x_1_3 - 4 y_1_3 <= 0
 c19: x_2_0 - 4 y_2_0 <= 0
 c20: x_2_1 - 4 y_2_1 <= 0
 c21: x_2_3 - 4 y_2_3 <= 0
 c22: x_3_0 - 4 y_3_0 <= 0
 c23: x_3_1 - 4 y_3_1 <= 0
 c24: x_3_2 - 4 y_3_2 <= 0
Bounds
 0 <= x_0_0 <= 4
 0 <= x_0_1 <= 4
 0 <= x_0_2 <= 4
 0 <= x_0_3 <= 4
 0 <= x_1_0 <= 4
 0 <= x_1_1 <= 4
 0 <= x_1_2 <= 4
 0 <= x_1_3 <= 4
 0 <= x_2_0 <= 4
 0 <= x_2_1 <= 4
 0 <= x_2_2 <= 4
 0 <= x_2_3 <= 4
 0 <= x_3_0 <= 4
 0 <= x_3_1 <= 4
 0 <= x_3_2 <= 4
 0 <= x_3_3 <= 4
 0 <= y_0_0 <= 1
 0 <= y_0_1 <= 1
 0 <= y_0_2 <= 1
 0 <= y_0_3 <= 1
 0 <= y_1_0 <= 1
 0 <= y_1_1 <= 1
 0 <= y_1_2 <= 1
 0 <= y_1_3 <= 1
 0 <= y_2_0 <= 1
 0 <= y_2_1 <= 1
 0 <= y_2_2 <= 1
 0 <= y_2_3 <= 1
 0 <= y_3_0 <= 1
 0 <= y_3_1 <= 1
 0 <= y_3_2 <= 1
 0 <= y_3_3 <= 1
Binaries
 y_0_0  y_0_1  y_0_2  y_0_3  y_1_0  y_1_1  y_1_2  y_1_3  y_2_0  y_2_1  y_2_2 
 y_2_3  y_3_0  y_3_1  y_3_2  y_3_3 
End
